NumberOfSpecies     1
%block ChemicalSpeciesLabel
 1  1  H_sz      # Species index, atomic number, species label
%endblock ChemicalSpeciesLabel
AtomicCoordinatesFormat  Ang
%block AtomicCoordinatesAndAtomicSpecies
  0.000      0.000      0.000   1
%endblock AtomicCoordinatesAndAtomicSpecies
PAO.basis-size SZ
PAO.energy-shift 300 meV
