SystemName silicon
SystemLabel silicon
NumberOfAtoms 2
NumberOfSpecies 1
%block ChemicalSpeciesLabel
1 14 Si
%endblock ChemicalSpeciesLabel
LatticeConstant 5.43 Ang
%block LatticeVectors
0.500 0.500 0.000
0.500 0.000 0.500
0.000 0.500 0.500
%endblock LatticeVectors
AtomicCoordinatesFormat ScaledCartesian
%block AtomicCoordinatesAndAtomicSpecies
0.000 0.000 0.000 1 Si
0.250 0.250 0.250 1 Si
%endblock AtomicCoordinatesAndAtomicSpecies
%block kgrid_Monkhorst_Pack
   6  0  0  0.5
   0  6  0  0.5
   0  0  6  0.5
%endblock kgrid_Monkhorst_Pack
BandLinesScale       pi/a
%block BandLines
1  1.0   1.0   1.0   L              # Begin at L
36  0.0   0.0   0.0   \Gamma        # 36 points from L to Gamma
36  0.0   2.0   0.0   X             # 36 points from Gamma to X
36  1.5   1.5   0.0   K             # 36 points from X to K
36  0.0   0.0   0.0   \Gamma        # 38 points from K to Gamma
%endblock BandLines
