# -- NAME & LABEL --

SystemName graphene
SystemLabel graphene

# -- MATERIAL --

NumberOfSpecies 1
NumberOfAtoms 2

%block Chemical_Species_label
1 6 C
%endblock Chemical_Species_label

# -- CELL-ATOMIC-POSITION --
LatticeConstant 2.47 Ang

%block LatticeVectors
1.000 0.000 0.000
0.500 0.866 0.000
0.000 0.000 16.194
%endblock LatticeVectors

AtomicCoordinatesFormat ScaledCartesian
%block  AtomicCoordinatesAndAtomicSpecies
    1.426  0.000 10.000   1  C
    2.852  0.000 10.000   1  C
%endblock  AtomicCoordinatesAndAtomicSpecies

# -- MONKHORST-PACK --

%block kgrid_Monkhorst_Pack
3   0   0   0.5
0   3   0   0.5
0   0   1   0.5
%endblock kgrid_Monkhorst_Pack


	