# -- NAME & LABEL --

SystemName graphene
SystemLabel graphene

	# -- MATERIAL --

NumberOfSpecies 1
NumberOfAtoms 2

%block Chemical_Species_label
1 6 C

%endblock Chemical_Species_label

	# -- CELL-ATOMIC-POSITION --

LatticeConstant 1.0 		Ang

%block LatticeParameters
2.47 2.47 40.00 90. 90. 120.
%endblock LatticeParameters

AtomicCoordinatesFormat      	ScaledByLatticeVectors
%block  AtomicCoordinatesAndAtomicSpecies
    0.00  0.00 0.25   1  C
    0.67 -0.67 0.25   1  C
    0.00  0.00 0.75   1  C
   -0.67  0.67 0.75   1  C
%endblock  AtomicCoordinatesAndAtomicSpecies

	# -- MONKHORST-PACK --

%block kgrid_Monkhorst_Pack
XX   0   0   0.0
0   XX   0   0.0
0   0   XX   0.0
%endblock kgrid_Monkhorst_Pack


	# -- SELF-CONSISTENT FIELD --

MeshCutoff		XX Ry
PAO.BasisType		split
PAO.BasisSize 		DZP
PAO.EnergyShift 	0.03 eV
XC.functional        	GGA
XC.authors              PBE
MaxSCFIterations     	XXX
SolutionMethod         	diagon

	# -- SELF-CONSISTENT FIELD-MIXING --

DM.MixingWeight        	0.02
DM.NumberPulay      	3
DM.Tolerance 		1.d-5
DM.Require.Energy.Convergence   T
DM.Energy.Tolerance     1.e-5 eV
SCF.MixAfterConvergence F
DM.FormattedFiles       T
DM.FormattedOutput      T
	
	# -- MOLECULAR DYNAMICS-CONJUGATE-GRADIENT-METHOD --

MD.TypeOfRun          	CG  
MD.NumCGsteps     	XXX
MD.MaxForceTol 	        0.04 eV/Ang
MD.VariableCell      	T
MD.ConstantVolume  	F
MD.UseSaveXV        	T
MD.UseSaveCG    	T
MD.MaxStressTol         0.0010 eV/Ang**
WriteMDHistory      	T 
WriteMDXMol  		T
MD.MaxCGDispl           0.02 Bohr

	# -- SPIN FIELD --

SpinPolarized      	F       #If spin polarized the use T
FixSpin             	F	#for magnetic systems
NonCollinearSpin        F	#for magnetic systems
DM.InitSpinAF           F 	#for magnetic systems

	# -- SAVING DENSITY-MATRIX & FOR POST RUN --

ON.UseSaveLWF	    	T
DM.UseSaveDM          	T 
UseSaveData           	T
LongOutput           	T


	# -- SAVING WAVE/BAND/EIGEN/KPOINTS/ANIMATION INFORMATION --

WriteKbands            	T
WriteBands           	T
WriteCoorXmol 		T
WriteCoorStep       	T
WriteKpoints        	T
WriteCoorCerius		T
WriteHS             	T
WriteForces           	T
WriteMullikenPop	1
SaveHS			T
XML.Write              	T

	# -- BAND-STRUCTURE-ANALYSIS --

BandLinesScale		pi/a

%block BandLines
1	0.0000	0.0000	0.5000	A
20	0.5000	0.0000	0.5000	L
25	0.5000	0.0000	0.0000	M
30	0.0000	0.0000	0.0000	\Gamma
35	0.0000	0.0000	0.5000	A
40	0.6666	0.3333	0.5000	H
45	0.6666	0.3333	0.0000	K
50	0.0000	0.0000	0.0000	\Gamma
%endblock BandLines


	# -- WAVEFUNCTIONS-OF-BANDS --

WFS.Write.For.Bands   	T
COOP.Write           	T
WriteWaveFunctions    	T