SystemName graphene
SystemLabel graphene
NumberOfAtoms 2
NumberOfSpecies 1
%block ChemicalSpeciesLabel
1 6 C
%endblock ChemicalSpeciesLabel
LatticeConstant 2.461 Ang
%block LatticeVectors
0.866 0.500 0.000
-0.866 0.500 0.000
0.000 0.000 1.000
%endblock LatticeVectors
AtomicCoordinatesFormat ScaledCartesian
%block AtomicCoordinatesAndAtomicSpecies
0.000 0.000 0.000 1 C
0.577 0.000 0.000 1 C
%endblock AtomicCoordinatesAndAtomicSpecies
%block kgrid_Monkhorst_Pack
4  0  0    0.5
0  4  0    0.5
0  0  1    0.0
%endblock kgrid_Monkhorst_Pack
BandLinesScale       pi/a
%block Bandlines
  1   0.5000000000   0.000000000   0.0000   M
 30   0.0000000000   0.000000000   0.0000   \Gamma
 45   0.3333333333   0.333333333   0.0000   K
 30   0.5000000000   0.500000000   0.0000   M
%endblock BandLines
